# Solution for model GasLib-40
# Objective value = 1.0745373075543139e+01
loadshed[innode_1] 0
loadshed[innode_2] 0
loadshed[innode_3] 0
loadshed[innode_4] 0
loadshed[innode_5] 0
loadshed[innode_6] 0
loadshed[innode_7] 0
loadshed[innode_8] 0
loadshed[source_1] -2.6968141105960197e-01
loadshed[source_2] 0.0746783458388196
loadshed[source_3] 2.6297291906989273e-01
loadshed[sink_1] 0
loadshed[sink_2] 0
loadshed[sink_3] 0
loadshed[sink_4] 0
loadshed[sink_5] 0
loadshed[sink_6] 0
loadshed[sink_7] 0
loadshed[sink_8] 0
loadshed[sink_9] 0
loadshed[sink_10] 0
loadshed[sink_11] 0
loadshed[sink_12] 6.5704192054276511e-01
loadshed[sink_13] 0
loadshed[sink_14] 0
loadshed[sink_15] 0
loadshed[sink_16] 0
loadshed[sink_17] 0
loadshed[sink_18] 0
loadshed[sink_19] 0
loadshed[sink_20] 0
loadshed[sink_21] 0
loadshed[sink_22] 0
loadshed[sink_23] 0
loadshed[sink_24] 0
loadshed[sink_25] 0
loadshed[sink_26] 0
loadshed[sink_27] 0
loadshed[sink_28] 0
loadshed[sink_29] 0
flow[source_1,sink_3] 2.0072428696369332e+02
flow[innode_1,sink_16] 1.6354166666666970e+01
flow[innode_6,sink_13] -2.0376492873184944e+00
flow[sink_13,sink_14] -1.8391815953985162e+01
flow[sink_14,sink_10] -3.4745982620651830e+01
flow[sink_25,sink_26] 1.6887002641359427e+02
flow[sink_26,sink_9] 1.2773676021124143e+02
flow[sink_9,sink_18] 1.1138259354457476e+02
flow[sink_26,sink_4] 2.4779099535686186e+01
flow[sink_4,sink_20] 8.4249328690195178e+00
flow[sink_18,sink_6] 9.5028426877908089e+01
flow[sink_25,innode_8] -1.6801595363035693e+02
flow[sink_6,sink_7] 4.5965926877908259e+01
flow[sink_6,sink_22] 3.2708333333333641e+01
flow[sink_7,sink_24] 3.8317126924456865e+01
flow[sink_22,sink_1] 1.6354166666666970e+01
flow[sink_24,sink_21] 2.1962960257790197e+01
flow[sink_21,sink_12] 5.60879359112353
flow[sink_7,sink_5] -8.7053667132153123e+00
flow[sink_5,sink_17] -2.5059533379881941e+01
flow[sink_17,sink_4] 0
flow[sink_17,sink_8] -4.1413700046548641e+01
flow[sink_3,sink_23] 16.3541666666697
flow[sink_8,sink_20] -5.7767866713215312e+01
flow[sink_25,sink_20] 6.5697100510862441e+01
flow[sink_25,sink_15] -8.0867690673448877e+01
flow[sink_15,sink_29] -9.7221857340115548e+01
flow[sink_29,sink_28] 1.6354166666667879e+01
flow[sink_29,sink_2] 1.6354166666684250e+01
flow[sink_2,sink_15] 0
flow[sink_29,innode_7] -1.4628435734013382e+02
flow[innode_4,sink_19] 0
flow[sink_19,innode_3] 4.0898185763465420e+01
flow[innode_4,innode_5] 1.1651681595398536e+02
flow[sink_27,innode_5] -1.1651681595398536e+02
flow[sink_27,sink_19] 1.0016264928731869e+02
flow[sink_10,sink_11] 3.2708333333333641e+01
flow[sink_10,innode_2] -4.2910296857186715e+01
flow[sink_10,innode_3] -4.0898185763465420e+01
flow[innode_6,sink_25] 2.0376492873184944e+00
flow[sink_11,innode_1] 1.6354166666666970e+01
flow[sink_19,innode_2] 4.2910296857186715e+01
flow[source_3,innode_4] 1.1651681595398536e+02
flow[source_2,innode_7] 1.4628435734013382e+02
flow[sink_3,innode_8] 1.6801595363035693e+02
pressure[innode_1] 7.5396012530243482e+01
pressure[innode_2] 7.7815700252079708e+01
pressure[innode_3] 7.7725135850923650e+01
pressure[innode_4] 81.01325
pressure[innode_5] 8.0933103590036112e+01
pressure[innode_6] 7.3860130707038550e+01
pressure[innode_7] 81.01325
pressure[innode_8] 8.0342305388137319e+01
pressure[source_1] 81.01325
pressure[source_2] 81.01325
pressure[source_3] 81.01325
pressure[sink_1] 4.5652565383948144e+01
pressure[sink_2] 7.6686447010999245e+01
pressure[sink_3] 8.0342305388137319e+01
pressure[sink_4] 5.8816235072456315e+01
pressure[sink_5] 5.0743134324446522e+01
pressure[sink_6] 4.7753642994335515e+01
pressure[sink_7] 4.7122640384488527e+01
pressure[sink_8] 5.4172534918641183e+01
pressure[sink_9] 5.4321339140450263e+01
pressure[sink_10] 7.5547713837847027e+01
pressure[sink_11] 7.5396012530243482e+01
pressure[sink_12] 1.0132499999999998e+00
pressure[sink_13] 7.3871363927036711e+01
pressure[sink_14] 7.3904277648322690e+01
pressure[sink_15] 7.4252417806048271e+01
pressure[sink_16] 74.3743626954258
pressure[sink_17] 5.2609888425737843e+01
pressure[sink_18] 50.2911849287851
pressure[sink_19] 7.7815700252079708e+01
pressure[sink_20] 5.8198142823385204e+01
pressure[sink_21] 3.0091657301907104e+00
pressure[sink_22] 4.6716334526303157e+01
pressure[sink_23] 8.0177587376477533e+01
pressure[sink_24] 3.2523851090219873e+00
pressure[sink_25] 7.3860130707038550e+01
pressure[sink_26] 6.1966713918595964e+01
pressure[sink_27] 79.966229317544
pressure[sink_28] 7.6805434235845723e+01
pressure[sink_29] 77.1007165094629
interdiction[source_1,sink_3] 0
interdiction[innode_1,sink_16] 0
interdiction[innode_6,sink_13] 0
interdiction[sink_13,sink_14] 0
interdiction[sink_14,sink_10] 0
interdiction[sink_25,sink_26] 0
interdiction[sink_26,sink_9] 0
interdiction[sink_9,sink_18] 0
interdiction[sink_26,sink_4] 0
interdiction[sink_4,sink_20] 0
interdiction[sink_18,sink_6] 0
interdiction[sink_25,innode_8] 0
interdiction[sink_6,sink_7] 0
interdiction[sink_6,sink_22] 0
interdiction[sink_7,sink_24] 0
interdiction[sink_22,sink_1] 0
interdiction[sink_24,sink_21] 0
interdiction[sink_21,sink_12] 0
interdiction[sink_7,sink_5] 0
interdiction[sink_5,sink_17] 0
interdiction[sink_17,sink_4] 1
interdiction[sink_17,sink_8] 0
interdiction[sink_3,sink_23] 0
interdiction[sink_8,sink_20] 0
interdiction[sink_25,sink_20] 0
interdiction[sink_25,sink_15] 0
interdiction[sink_15,sink_29] 0
interdiction[sink_29,sink_28] 0
interdiction[sink_29,sink_2] 0
interdiction[sink_2,sink_15] 1
interdiction[sink_29,innode_7] 0
interdiction[innode_4,sink_19] 1
interdiction[sink_19,innode_3] 0
interdiction[innode_4,innode_5] 0
interdiction[sink_27,innode_5] 0
interdiction[sink_27,sink_19] 0
interdiction[sink_10,sink_11] 0
interdiction[sink_10,innode_2] 0
interdiction[sink_10,innode_3] 0
interdiction[innode_6,sink_25] 0
interdiction[sink_11,innode_1] 0
interdiction[sink_19,innode_2] 0
interdiction[source_3,innode_4] 0
interdiction[source_2,innode_7] 0
interdiction[sink_3,innode_8] 0
WCcheckFlow[source_1,sink_3] 39
WCcheckFlow[innode_1,sink_16] 1
WCcheckFlow[innode_6,sink_13] 13
WCcheckFlow[sink_13,sink_14] 12
WCcheckFlow[sink_14,sink_10] 11
WCcheckFlow[sink_25,sink_26] 15
WCcheckFlow[sink_26,sink_9] 12
WCcheckFlow[sink_9,sink_18] 11
WCcheckFlow[sink_26,sink_4] 2
WCcheckFlow[sink_4,sink_20] 1
WCcheckFlow[sink_18,sink_6] 10
WCcheckFlow[sink_25,innode_8] -36
WCcheckFlow[sink_6,sink_7] 7
WCcheckFlow[sink_6,sink_22] 2
WCcheckFlow[sink_7,sink_24] 3
WCcheckFlow[sink_22,sink_1] 1
WCcheckFlow[sink_24,sink_21] 2
WCcheckFlow[sink_21,sink_12] 1
WCcheckFlow[sink_7,sink_5] 3
WCcheckFlow[sink_5,sink_17] 2
WCcheckFlow[sink_17,sink_4] 0
WCcheckFlow[sink_17,sink_8] 1
WCcheckFlow[sink_3,sink_23] 1
WCcheckFlow[sink_8,sink_20] 0
WCcheckFlow[sink_25,sink_20] 0
WCcheckFlow[sink_25,sink_15] 6
WCcheckFlow[sink_15,sink_29] 5
WCcheckFlow[sink_29,sink_28] 1
WCcheckFlow[sink_29,sink_2] 1
WCcheckFlow[sink_2,sink_15] 0
WCcheckFlow[sink_29,innode_7] 2
WCcheckFlow[innode_4,sink_19] 0
WCcheckFlow[sink_19,innode_3] -5
WCcheckFlow[innode_4,innode_5] -2
WCcheckFlow[sink_27,innode_5] 3
WCcheckFlow[sink_27,sink_19] -4
WCcheckFlow[sink_10,sink_11] 3
WCcheckFlow[sink_10,innode_2] 1
WCcheckFlow[sink_10,innode_3] 6
WCcheckFlow[innode_6,sink_25] -14
WCcheckFlow[sink_11,innode_1] 2
WCcheckFlow[sink_19,innode_2] 0
WCcheckFlow[source_3,innode_4] -1
WCcheckFlow[source_2,innode_7] -1
WCcheckFlow[sink_3,innode_8] 37
